JulietBench/Juliet_Based_Patch_Bench/linux/CWE-190-Integer-Overflow-or-Wraparound/CVE_2019_11477_3b4929f65b0d8249f19a50245cd88ed1a2f78cff/solvertcp_shift_skb_data_Snippet_patch2.smt2
; benchmark generated from python API
(set-info :status unknown)
(declare-fun R () (_ BitVec 32))
(declare-fun rcx () (_ BitVec 64))
(declare-fun rdx () (_ BitVec 64))
(declare-fun rsi () (_ BitVec 64))
(declare-fun r8 () (_ BitVec 64))
(declare-fun rdi () (_ BitVec 64))
(assert
 (let (($x116 (and (distinct (_ bv5 32) R) true)))
 (let (($x20 (= (_ bv1 32) R)))
 (let ((?x12 ((_ extract 31 0) rcx)))
 (let ((?x31 (bvadd (bvadd (bvadd ((_ extract 31 0) r8) ((_ extract 31 0) rsi)) ((_ extract 31 0) rdx)) ?x12)))
 (let (($x35 (= (_ bv0 32) ?x31)))
 (let (($x18 (and $x35 $x20)))
 (let ((?x6 ((_ extract 31 0) rdi)))
 (let (($x32 (= R ?x6)))
 (let (($x79 (and (distinct (_ bv0 32) ?x31) true)))
 (let (($x26 (and $x79 $x32)))
 (let (($x15 (or $x26 $x18)))
 (let (($x115 (not $x15)))
 (let (($x117 (and $x115 $x116)))
 (let (($x93 (= (_ bv5 32) R)))
 (let (($x106 (and $x15 $x93)))
 (let (($x118 (or $x106 $x117)))
 (not $x118))))))))))))))))))
(check-sat)
